Copyright (C) 2013-2015, Filipe Brandao
Build (method = -2)
  #dp: 653
  Step-3' Graph: 32 vertices and 255 arcs (0.00s)
  Step-4' Graph: 32 vertices and 255 arcs (0.00s)
  #V4/#V3 = 1.00
  #A4/#A3 = 1.00
Ready! (0.00s)
Optimize a model with 63 rows, 256 columns and 712 nonzeros
Found heuristic solution: objective 316
Presolve removed 21 rows and 28 columns
Presolve time: 0.00s
Presolved: 42 rows, 228 columns, 636 nonzeros
Variable types: 0 continuous, 228 integer (0 binary)
Optimize a model with 42 rows, 228 columns and 636 nonzeros
Presolved: 42 rows, 228 columns, 636 nonzeros

Root barrier log...

Ordering time: 0.00s

Barrier statistics:
 AA' NZ     : 3.120e+02
 Factor NZ  : 7.230e+02
 Factor Ops : 1.528e+04 (less than 1 second per iteration)
 Threads    : 1

                  Objective                Residual
Iter       Primal          Dual         Primal    Dual     Compl     Time
   0   2.02381723e+03 -4.96356005e+03  9.72e+03 2.22e-16  7.69e+01     0s
   1   6.88502371e+02 -2.03024930e+03  1.18e+03 1.20e-14  1.22e+01     0s
   2   3.64413540e+02 -3.61393903e+02  5.78e+00 1.08e-14  1.56e+00     0s
   3   2.82575684e+02  1.87685044e+00  2.99e-02 1.03e-14  5.96e-01     0s
   4   2.23979959e+02  1.18505047e+02  1.33e-03 8.16e-15  2.24e-01     0s
   5   2.07661631e+02  1.91304361e+02  2.83e-04 9.28e-15  3.47e-02     0s
   6   2.02620532e+02  2.00788811e+02  5.67e-05 9.96e-15  3.89e-03     0s
   7   2.01803801e+02  2.01339830e+02  1.64e-05 8.49e-15  9.85e-04     0s
   8   2.01500431e+02  2.01499644e+02  1.02e-09 8.69e-15  1.67e-06     0s
   9   2.01500000e+02  2.01500000e+02  5.68e-13 9.63e-15  1.67e-09     0s
  10   2.01500000e+02  2.01500000e+02  1.14e-13 1.11e-14  1.67e-12     0s

Barrier solved model in 10 iterations and 0.00 seconds
Optimal objective 2.01500000e+02


Root relaxation: objective 2.015000e+02, 64 iterations, 0.00 seconds

    Nodes    |    Current Node    |     Objective Bounds      |     Work
 Expl Unexpl |  Obj  Depth IntInf | Incumbent    BestBd   Gap | It/Node Time

     0     0  201.50000    0    2  316.00000  201.50000  36.2%     -    0s
H    0     0                     202.0000000  201.50000  0.25%     -    0s

Explored 0 nodes (86 simplex iterations) in 0.00 seconds
Thread count was 1 (of 4 available processors)

Optimal solution found (tolerance 0.00e+00)
Best objective 2.020000000000e+02, best bound 2.020000000000e+02, gap 0.0%
Preprocessing time: 0.00 seconds
Gurobi run time: 0.00 seconds
Total run time: 0.00 seconds
Objective: 202
Solution:
3 x [i=1]
7 x [i=1, i=31]
15 x [i=2, i=30]
10 x [i=3, i=29]
5 x [i=3, i=30]
13 x [i=4, i=28]
15 x [i=5, i=27]
8 x [i=6, i=27]
2 x [i=6, i=28]
9 x [i=7, i=25]
1 x [i=7, i=28]
10 x [i=8, i=24]
12 x [i=9, i=23]
9 x [i=10, i=22]
5 x [i=11, i=22]
3 x [i=11, i=24]
1 x [i=11, i=25]
4 x [i=12, i=20]
8 x [i=12, i=21]
8 x [i=13, i=20]
13 x [i=13, i=26]
1 x [i=14, i=18]
8 x [i=14, i=19]
5 x [i=14, i=23]
2 x [i=14, i=25]
8 x [i=15, i=17]
8 x [i=15, i=18]
1 x [i=16]
8 x [i=16, i=16]
